21° run output:
{
    "Function": "ClusterA500.tsp",
    "Problem dimension": [
        382,
        105,
        430,
        233,
        18,
        175,
        202,
        395,
        349,
        199,
        86,
        490,
        243,
        432,
        16,
        494,
        26,
        360,
        114,
        98,
        329,
        389,
        304,
        461,
        209,
        121,
        1,
        62,
        19,
        135,
        92,
        317,
        485,
        424,
        7,
        231,
        189,
        205,
        186,
        311,
        478,
        327,
        276,
        56,
        442,
        458,
        190,
        120,
        29,
        24,
        408,
        192,
        74,
        101,
        198,
        410,
        269,
        281,
        375,
        354,
        298,
        41,
        161,
        107,
        217,
        396,
        400,
        159,
        211,
        223,
        48,
        435,
        253,
        250,
        323,
        8,
        291,
        270,
        255,
        212,
        493,
        374,
        326,
        340,
        447,
        160,
        483,
        34,
        81,
        480,
        412,
        429,
        45,
        437,
        308,
        218,
        247,
        10,
        454,
        162,
        44,
        415,
        441,
        328,
        392,
        123,
        332,
        391,
        351,
        78,
        221,
        455,
        147,
        37,
        235,
        71,
        50,
        61,
        259,
        127,
        325,
        131,
        38,
        246,
        93,
        51,
        113,
        295,
        481,
        77,
        116,
        13,
        427,
        294,
        463,
        178,
        173,
        333,
        482,
        9,
        138,
        366,
        380,
        336,
        257,
        385,
        88,
        239,
        453,
        141,
        63,
        347,
        284,
        196,
        324,
        436,
        75,
        85,
        53,
        321,
        191,
        330,
        299,
        264,
        17,
        449,
        401,
        169,
        353,
        474,
        106,
        66,
        452,
        215,
        342,
        164,
        267,
        54,
        315,
        204,
        446,
        467,
        187,
        302,
        258,
        279,
        57,
        151,
        266,
        226,
        184,
        303,
        265,
        261,
        197,
        316,
        283,
        438,
        407,
        320,
        301,
        492,
        149,
        465,
        59,
        55,
        445,
        313,
        232,
        405,
        102,
        3,
        23,
        368,
        60,
        450,
        0,
        296,
        52,
        230,
        341,
        99,
        388,
        288,
        371,
        314,
        496,
        109,
        4,
        377,
        274,
        348,
        236,
        126,
        150,
        376,
        379,
        444,
        42,
        386,
        399,
        14,
        70,
        27,
        155,
        193,
        249,
        457,
        65,
        363,
        6,
        167,
        462,
        357,
        33,
        166,
        168,
        90,
        237,
        31,
        67,
        100,
        28,
        352,
        425,
        466,
        350,
        476,
        334,
        227,
        157,
        275,
        22,
        431,
        469,
        21,
        153,
        58,
        91,
        241,
        393,
        165,
        468,
        183,
        422,
        319,
        495,
        383,
        82,
        129,
        406,
        460,
        36,
        338,
        80,
        305,
        132,
        416,
        254,
        271,
        448,
        345,
        20,
        390,
        337,
        180,
        484,
        273,
        174,
        208,
        245,
        397,
        68,
        210,
        361,
        359,
        285,
        293,
        443,
        207,
        369,
        95,
        96,
        158,
        11,
        163,
        97,
        409,
        418,
        252,
        339,
        32,
        213,
        355,
        234,
        459,
        112,
        477,
        456,
        216,
        286,
        498,
        367,
        387,
        372,
        439,
        433,
        134,
        440,
        491,
        451,
        195,
        421,
        83,
        117,
        263,
        125,
        146,
        486,
        111,
        306,
        300,
        310,
        378,
        309,
        414,
        124,
        381,
        72,
        145,
        473,
        470,
        76,
        176,
        200,
        346,
        499,
        172,
        434,
        104,
        182,
        94,
        278,
        282,
        130,
        287,
        394,
        290,
        40,
        343,
        142,
        185,
        2,
        413,
        228,
        154,
        69,
        15,
        87,
        426,
        47,
        370,
        30,
        224,
        489,
        148,
        206,
        420,
        220,
        170,
        475,
        103,
        118,
        152,
        242,
        64,
        46,
        244,
        203,
        39,
        358,
        140,
        428,
        136,
        384,
        179,
        488,
        122,
        307,
        260,
        229,
        417,
        225,
        143,
        137,
        404,
        238,
        289,
        84,
        35,
        144,
        240,
        280,
        128,
        373,
        318,
        110,
        479,
        268,
        248,
        322,
        201,
        25,
        335,
        398,
        292,
        464,
        79,
        331,
        411,
        423,
        419,
        133,
        214,
        362,
        194,
        73,
        5,
        344,
        171,
        487,
        219,
        108,
        497,
        119,
        312,
        272,
        277,
        356,
        89,
        251,
        156,
        12,
        403,
        365,
        256,
        297,
        402,
        181,
        188,
        472,
        262,
        364,
        471,
        139,
        49,
        43,
        222,
        115,
        177
    ],
    "Global Optimum": 0,
    "Algorithm": "Genetic algorithm",
    "Parameters": {
        "population": 30,
        "offspring": 30,
        "mutation probability": 0.002,
        "crossover probability": 0.9
    },
    "Fitness": 561063,
    "Solution": [
        382,
        105,
        430,
        233,
        18,
        175,
        202,
        395,
        349,
        199,
        86,
        490,
        243,
        432,
        16,
        494,
        26,
        360,
        114,
        98,
        329,
        389,
        304,
        461,
        209,
        121,
        1,
        62,
        19,
        135,
        92,
        317,
        485,
        424,
        7,
        231,
        189,
        205,
        186,
        311,
        478,
        327,
        276,
        56,
        442,
        458,
        190,
        120,
        29,
        24,
        408,
        192,
        74,
        101,
        198,
        410,
        269,
        281,
        375,
        354,
        298,
        41,
        161,
        107,
        217,
        396,
        400,
        159,
        211,
        223,
        48,
        435,
        253,
        250,
        323,
        8,
        291,
        270,
        255,
        212,
        493,
        374,
        326,
        340,
        447,
        160,
        483,
        34,
        81,
        480,
        412,
        429,
        45,
        437,
        308,
        218,
        247,
        10,
        454,
        162,
        44,
        415,
        441,
        328,
        392,
        123,
        332,
        391,
        351,
        78,
        221,
        455,
        147,
        37,
        235,
        71,
        50,
        61,
        259,
        127,
        325,
        131,
        38,
        246,
        93,
        51,
        113,
        295,
        481,
        77,
        116,
        13,
        427,
        294,
        463,
        178,
        173,
        333,
        482,
        9,
        138,
        366,
        380,
        336,
        257,
        385,
        88,
        239,
        453,
        141,
        63,
        347,
        284,
        196,
        324,
        436,
        75,
        85,
        53,
        321,
        191,
        330,
        299,
        264,
        17,
        449,
        401,
        169,
        353,
        474,
        106,
        66,
        452,
        215,
        342,
        164,
        267,
        54,
        315,
        204,
        446,
        467,
        187,
        302,
        258,
        279,
        57,
        151,
        266,
        226,
        184,
        303,
        265,
        261,
        197,
        316,
        283,
        438,
        407,
        320,
        301,
        492,
        149,
        465,
        59,
        55,
        445,
        313,
        232,
        405,
        102,
        3,
        23,
        368,
        60,
        450,
        0,
        296,
        52,
        230,
        341,
        99,
        388,
        288,
        371,
        314,
        496,
        109,
        4,
        377,
        274,
        348,
        236,
        126,
        150,
        376,
        379,
        444,
        42,
        386,
        399,
        14,
        70,
        27,
        155,
        193,
        249,
        457,
        65,
        363,
        6,
        167,
        462,
        357,
        33,
        166,
        168,
        90,
        237,
        31,
        67,
        100,
        28,
        352,
        425,
        466,
        350,
        476,
        334,
        227,
        157,
        275,
        22,
        431,
        469,
        21,
        153,
        58,
        91,
        241,
        393,
        165,
        468,
        183,
        422,
        319,
        495,
        383,
        82,
        129,
        406,
        460,
        36,
        338,
        80,
        305,
        132,
        416,
        254,
        271,
        448,
        345,
        20,
        390,
        337,
        180,
        484,
        273,
        174,
        208,
        245,
        397,
        68,
        210,
        361,
        359,
        285,
        293,
        443,
        207,
        369,
        95,
        96,
        158,
        11,
        163,
        97,
        409,
        418,
        252,
        339,
        32,
        213,
        355,
        234,
        459,
        112,
        477,
        456,
        216,
        286,
        498,
        367,
        387,
        372,
        439,
        433,
        134,
        440,
        491,
        451,
        195,
        421,
        83,
        117,
        263,
        125,
        146,
        486,
        111,
        306,
        300,
        310,
        378,
        309,
        414,
        124,
        381,
        72,
        145,
        473,
        470,
        76,
        176,
        200,
        346,
        499,
        172,
        434,
        104,
        182,
        94,
        278,
        282,
        130,
        287,
        394,
        290,
        40,
        343,
        142,
        185,
        2,
        413,
        228,
        154,
        69,
        15,
        87,
        426,
        47,
        370,
        30,
        224,
        489,
        148,
        206,
        420,
        220,
        170,
        475,
        103,
        118,
        152,
        242,
        64,
        46,
        244,
        203,
        39,
        358,
        140,
        428,
        136,
        384,
        179,
        488,
        122,
        307,
        260,
        229,
        417,
        225,
        143,
        137,
        404,
        238,
        289,
        84,
        35,
        144,
        240,
        280,
        128,
        373,
        318,
        110,
        479,
        268,
        248,
        322,
        201,
        25,
        335,
        398,
        292,
        464,
        79,
        331,
        411,
        423,
        419,
        133,
        214,
        362,
        194,
        73,
        5,
        344,
        171,
        487,
        219,
        108,
        497,
        119,
        312,
        272,
        277,
        356,
        89,
        251,
        156,
        12,
        403,
        365,
        256,
        297,
        402,
        181,
        188,
        472,
        262,
        364,
        471,
        139,
        49,
        43,
        222,
        115,
        177
    ],
    "Nb of functions evaluations": 400020,
    "Computational time in seconds": 1766.4019260406494,
    "Stopping criterion in evaluations": 400000
}